ID_groupA
64506
44923
20965
64506
64506
64506
64506
64506
20965
20965
64506
20965
64506
64506
44923
44923
20965
64506
64506
64506
44923
44923
20965
64506
20965
64506
64506
44923
20965
44923
44923
44923
44923
44923
32348
20965
44923
44923
44923
32348
20965
20965
64506
44923
32348
32348
32348
32348
44923
20965
20965
27917
64506
20965
20965
32348
27917
20965
64506
20965
20965
64506
44923
20965
20965
20965
20965
64506
20965
64506
64506
20965
27917
27917
20965
64506
64506
64506
64506
64506
27917
64506
64506
64506
44923
20965
20965
44923
64506
64506
32348
32348
20965
44923
20965
27917
20965
20965
20965
20965
64506
27917
20965
20965
64506
